NAME : XML100_1236_25
DIMENSION : 101
NB_CLUSTERS : 5
CLUSTERING_ALG : DBSCAN
CLUSTERING_PARAMS : eps(84), minSamples(3)
CLUSTERS
1 0
2 2 23 25 27 34 37 38 41 43 47 49 52 54 58 65 68 69 71 73 79 82 91 94
3 3 5 6 8 12 15 26 31 32 44 46 51 53 59 63 66 74 76 78 80 88 89 90 92 96
4 7 11 18 20 21 22 24 28 29 33 35 36 39 42 48 50 55 56 60 67 70 72 75 81 83 85 95 99 100
5 1 4 9 10 13 14 16 17 19 30 40 45 57 61 62 64 77 84 86 87 93 97 98
EOF